set Cells := 119 136 137 138 139 140 154 155 156 157 158 159 160 161 162 163 164 175 176 177 178 179 180 181 182 183 184 185 196 197 198 199 200 201 202 203 204 205 206 217 218 219 220 221 222 223 238 239 240 259 260 261 262 281 282 283 284 285 286 301 302 303 304 305 306 307 308 322 323 324 325 326 327 328 329 343 344 345 346 347 348 349 367 368 369 370 391 ;

set E:= (119,140) (136,137) (136,157) (137,138) (137,158) (138,139) (138,159) (139,140) (139,160) (140,161) (154,155) (154,175) (155,156) (155,176) (156,157) (156,177) (157,158) (157,178) (158,159) (158,179) (159,160) (159,180) (160,161) (160,181) (161,162) (161,182) (162,163) (162,183) (163,164) (163,184) (164,185) (175,176) (175,196) (176,177) (176,197) (177,178) (177,198) (178,179) (178,199) (179,180) (179,200) (180,181) (180,201) (181,182) (181,202) (182,183) (182,203) (183,184) (183,204) (184,185) (184,205) (185,206) (196,197) (196,217) (197,198) (197,218) (198,199) (198,219) (199,200) (199,220) (200,201) (200,221) (201,202) (201,222) (202,203) (202,223) (203,204) (204,205) (205,206) (217,218) (217,238) (218,219) (218,239) (219,220) (219,240) (220,221) (221,222) (222,223) (238,239) (238,259) (239,240) (239,260) (240,261) (259,260) (260,261) (260,281) (261,262) (261,282) (262,283) (281,282) (281,302) (282,283) (282,303) (283,284) (283,304) (284,285) (284,305) (285,286) (285,306) (286,307) (301,302) (301,322) (302,303) (302,323) (303,304) (303,324) (304,305) (304,325) (305,306) (305,326) (306,307) (306,327) (307,308) (307,328) (308,329) (322,323) (322,343) (323,324) (323,344) (324,325) (324,345) (325,326) (325,346) (326,327) (326,347) (327,328) (327,348) (328,329) (328,349) (343,344) (344,345) (345,346) (346,347) (346,367) (347,348) (347,368) (348,349) (348,369) (349,370) (367,368) (368,369) (369,370) (370,391) ; 
set Landuses := ForestDryPoor ForestDryRich ForestWetPoor ForestWetRich OpenDryPoor OpenDryRich OpenWetPoor OpenWetRich ;
param PhyloDiversity default 0 := [ForestDryPoor,163] 0.96 [ForestDryRich,119] 0.85 [ForestDryRich,136] 0.27 [ForestDryRich,137] 0.32 [ForestDryRich,138] 0.12 [ForestDryRich,139] 0.0691753622982651 [ForestDryRich,140] 0.467083652196452 [ForestDryRich,154] 0.16 [ForestDryRich,156] 0.0898945556790568 [ForestDryRich,157] 0.389759330188972 [ForestDryRich,158] 0.44 [ForestDryRich,159] 0.34 [ForestDryRich,160] 0.31 [ForestDryRich,161] 0.19 [ForestDryRich,162] 0.71 [ForestDryRich,163] 1 [ForestDryRich,175] 0.12739893341437 [ForestDryRich,176] 0.218481380734593 [ForestDryRich,177] 0.667214758372866 [ForestDryRich,178] 0.708349141716026 [ForestDryRich,179] 0.671091958135366 [ForestDryRich,180] 0.493242405820638 [ForestDryRich,181] 0.43845818400383 [ForestDryRich,182] 0.38 [ForestDryRich,183] 0.8 [ForestDryRich,197] 0.577207934428006 [ForestDryRich,198] 0.675651723276824 [ForestDryRich,199] 0.707535074651241 [ForestDryRich,217] 0.611862163040787 [ForestDryRich,218] 0.613710228651762 [ForestDryRich,219] 0.635396655555814 [ForestDryRich,239] 0.6771542067267 [ForestDryRich,260] 0.57 [ForestDryRich,261] 0.48 [ForestDryRich,262] 0.62 [ForestDryRich,281] 0.42 [ForestDryRich,282] 0.13 [ForestDryRich,285] 0.730983512215316 [ForestDryRich,286] 0.776466749254614 [ForestDryRich,303] 0.289569502795348 [ForestDryRich,304] 0.712724931836128 [ForestDryRich,305] 0.648540632948279 [ForestDryRich,307] 0.706966659575701 [ForestDryRich,323] 0.3 [ForestDryRich,324] 0.576443068562076 [ForestDryRich,325] 0.717674285899848 [ForestDryRich,326] 0.704186824858189 [ForestDryRich,327] 0.7015515293926 [ForestDryRich,328] 0.68989671273157 [ForestDryRich,343] 0.21 [ForestDryRich,344] 0.55 [ForestDryRich,345] 0.547105446411297 [ForestDryRich,346] 0.636409995853901 [ForestDryRich,347] 0.716335724964738 [ForestDryRich,348] 0.716716772653162 [ForestDryRich,349] 0.649087045952911 [ForestDryRich,367] 0.543720788508654 [ForestDryRich,368] 0.546751107717864 [ForestWetRich,119] 0.86 [ForestWetRich,136] 0.27 [ForestWetRich,137] 0.32 [ForestWetRich,138] 0.12 [ForestWetRich,139] 0.07 [ForestWetRich,140] 0.47 [ForestWetRich,154] 0.16 [ForestWetRich,156] 0.09 [ForestWetRich,157] 0.39 [ForestWetRich,158] 0.44 [ForestWetRich,159] 0.34 [ForestWetRich,160] 0.31 [ForestWetRich,161] 0.19 [ForestWetRich,162] 0.71 [ForestWetRich,163] 1 [ForestWetRich,175] 0.13 [ForestWetRich,176] 0.22 [ForestWetRich,177] 0.67 [ForestWetRich,178] 0.71 [ForestWetRich,179] 0.68 [ForestWetRich,180] 0.5 [ForestWetRich,181] 0.44 [ForestWetRich,182] 0.38 [ForestWetRich,197] 0.59 [ForestWetRich,198] 0.68 [ForestWetRich,199] 0.72 [ForestWetRich,217] 0.62 [ForestWetRich,218] 0.62 [ForestWetRich,219] 0.65 [ForestWetRich,239] 0.69 [ForestWetRich,260] 0.57 [ForestWetRich,261] 0.48 [ForestWetRich,262] 0.62 [ForestWetRich,281] 0.42 [ForestWetRich,282] 0.13 [ForestWetRich,283] 0.67 [ForestWetRich,284] 0.67 [ForestWetRich,285] 0.74 [ForestWetRich,286] 0.78 [ForestWetRich,303] 0.29 [ForestWetRich,304] 0.72 [ForestWetRich,305] 0.67 [ForestWetRich,307] 0.72 [ForestWetRich,326] 0.72 [ForestWetRich,327] 0.73 [ForestWetRich,328] 0.7 [ForestWetRich,345] 0.56 [ForestWetRich,346] 0.64 [ForestWetRich,347] 0.72 [ForestWetRich,348] 0.72 [ForestWetRich,349] 0.65 [ForestWetRich,367] 0.56 [ForestWetRich,368] 0.56 [OpenDryPoor,163] 0.99 [OpenDryRich,119] 0.86 [OpenDryRich,136] 0.27 [OpenDryRich,137] 0.32 [OpenDryRich,138] 0.12 [OpenDryRich,139] 0.0691753622982651 [OpenDryRich,140] 0.467083652196452 [OpenDryRich,154] 0.16 [OpenDryRich,156] 0.0898945556790568 [OpenDryRich,157] 0.389759330188972 [OpenDryRich,158] 0.44 [OpenDryRich,159] 0.34 [OpenDryRich,160] 0.31 [OpenDryRich,161] 0.19 [OpenDryRich,162] 0.71 [OpenDryRich,163] 1 [OpenDryRich,175] 0.12739893341437 [OpenDryRich,176] 0.218481380734593 [OpenDryRich,177] 0.667214758372866 [OpenDryRich,178] 0.708349141716026 [OpenDryRich,179] 0.671091958135366 [OpenDryRich,180] 0.493242405820638 [OpenDryRich,181] 0.43845818400383 [OpenDryRich,182] 0.38 [OpenDryRich,183] 0.8 [OpenDryRich,197] 0.577207934428006 [OpenDryRich,198] 0.675651723276824 [OpenDryRich,199] 0.707535074651241 [OpenDryRich,217] 0.611862163040787 [OpenDryRich,218] 0.613710228651762 [OpenDryRich,219] 0.635396655555814 [OpenDryRich,239] 0.6771542067267 [OpenDryRich,260] 0.57 [OpenDryRich,261] 0.48 [OpenDryRich,262] 0.62 [OpenDryRich,281] 0.42 [OpenDryRich,282] 0.13 [OpenDryRich,285] 0.730983512215316 [OpenDryRich,286] 0.776466749254614 [OpenDryRich,303] 0.289569502795348 [OpenDryRich,304] 0.712724931836128 [OpenDryRich,305] 0.648540632948279 [OpenDryRich,307] 0.706966659575701 [OpenDryRich,323] 0.3 [OpenDryRich,324] 0.576443068562076 [OpenDryRich,325] 0.717674285899848 [OpenDryRich,326] 0.704186824858189 [OpenDryRich,327] 0.7015515293926 [OpenDryRich,328] 0.68989671273157 [OpenDryRich,343] 0.21 [OpenDryRich,344] 0.55 [OpenDryRich,345] 0.547105446411297 [OpenDryRich,346] 0.636409995853901 [OpenDryRich,347] 0.716335724964738 [OpenDryRich,348] 0.716716772653162 [OpenDryRich,349] 0.649087045952911 [OpenDryRich,367] 0.543720788508654 [OpenDryRich,368] 0.546751107717864 [OpenWetRich,119] 0.86 [OpenWetRich,136] 0.27 [OpenWetRich,137] 0.32 [OpenWetRich,138] 0.12 [OpenWetRich,139] 0.07 [OpenWetRich,140] 0.47 [OpenWetRich,154] 0.16 [OpenWetRich,156] 0.09 [OpenWetRich,157] 0.39 [OpenWetRich,158] 0.44 [OpenWetRich,159] 0.34 [OpenWetRich,160] 0.31 [OpenWetRich,161] 0.19 [OpenWetRich,162] 0.71 [OpenWetRich,163] 1 [OpenWetRich,175] 0.13 [OpenWetRich,176] 0.22 [OpenWetRich,177] 0.67 [OpenWetRich,178] 0.71 [OpenWetRich,179] 0.68 [OpenWetRich,180] 0.5 [OpenWetRich,181] 0.44 [OpenWetRich,182] 0.38 [OpenWetRich,197] 0.59 [OpenWetRich,198] 0.68 [OpenWetRich,199] 0.72 [OpenWetRich,217] 0.62 [OpenWetRich,218] 0.62 [OpenWetRich,219] 0.65 [OpenWetRich,239] 0.69 [OpenWetRich,260] 0.57 [OpenWetRich,261] 0.48 [OpenWetRich,262] 0.62 [OpenWetRich,281] 0.42 [OpenWetRich,282] 0.13 [OpenWetRich,283] 0.67 [OpenWetRich,284] 0.67 [OpenWetRich,285] 0.74 [OpenWetRich,286] 0.78 [OpenWetRich,303] 0.29 [OpenWetRich,304] 0.72 [OpenWetRich,305] 0.67 [OpenWetRich,307] 0.74 [OpenWetRich,326] 0.72 [OpenWetRich,327] 0.74 [OpenWetRich,328] 0.72 [OpenWetRich,345] 0.56 [OpenWetRich,346] 0.64 [OpenWetRich,347] 0.72 [OpenWetRich,348] 0.73 [OpenWetRich,349] 0.67 [OpenWetRich,367] 0.56 [OpenWetRich,368] 0.56 [OpenWetRich,391] 0.03 ;
param Richness default 0 := [ForestDryPoor,163] 0.89 [ForestDryRich,119] 0.85 [ForestDryRich,136] 0.24 [ForestDryRich,137] 0.26 [ForestDryRich,138] 0.05 [ForestDryRich,139] 0.0296465838421136 [ForestDryRich,140] 0.397518001869321 [ForestDryRich,154] 0.08 [ForestDryRich,156] 0.0399531358573586 [ForestDryRich,157] 0.259839553459315 [ForestDryRich,158] 0.31 [ForestDryRich,159] 0.22 [ForestDryRich,160] 0.18 [ForestDryRich,161] 0.1 [ForestDryRich,162] 0.43 [ForestDryRich,163] 0.99 [ForestDryRich,175] 0.0783993436396122 [ForestDryRich,176] 0.109240690367296 [ForestDryRich,177] 0.677173187602311 [ForestDryRich,178] 0.728302638665773 [ForestDryRich,179] 0.671091958135366 [ForestDryRich,180] 0.374864228423685 [ForestDryRich,181] 0.288983803093433 [ForestDryRich,182] 0.23 [ForestDryRich,183] 0.52 [ForestDryRich,197] 0.586991119757295 [ForestDryRich,198] 0.685587778030895 [ForestDryRich,199] 0.73701570276171 [ForestDryRich,217] 0.542780951084569 [ForestDryRich,218] 0.613710228651762 [ForestDryRich,219] 0.635396655555814 [ForestDryRich,239] 0.637898890394717 [ForestDryRich,260] 0.44 [ForestDryRich,261] 0.35 [ForestDryRich,262] 0.6 [ForestDryRich,281] 0.29 [ForestDryRich,282] 0.07 [ForestDryRich,285] 0.513664089664817 [ForestDryRich,286] 0.56741800907068 [ForestDryRich,303] 0.159762484300882 [ForestDryRich,304] 0.534543698877096 [ForestDryRich,305] 0.445266703218222 [ForestDryRich,307] 0.500768050532788 [ForestDryRich,322] 0.01 [ForestDryRich,323] 0.15 [ForestDryRich,324] 0.397546943835914 [ForestDryRich,325] 0.538255714424886 [ForestDryRich,326] 0.528140118643642 [ForestDryRich,327] 0.499735336005688 [ForestDryRich,328] 0.482927698912099 [ForestDryRich,343] 0.13 [ForestDryRich,344] 0.37 [ForestDryRich,345] 0.368052754858509 [ForestDryRich,346] 0.417644059779122 [ForestDryRich,347] 0.537251793723553 [ForestDryRich,348] 0.537537579489872 [ForestDryRich,349] 0.429396045784233 [ForestDryRich,367] 0.365775803178549 [ForestDryRich,368] 0.367814381555654 [ForestDryRich,391] 0.01 [ForestWetRich,119] 0.87 [ForestWetRich,136] 0.24 [ForestWetRich,137] 0.26 [ForestWetRich,138] 0.05 [ForestWetRich,139] 0.03 [ForestWetRich,140] 0.4 [ForestWetRich,154] 0.08 [ForestWetRich,156] 0.04 [ForestWetRich,157] 0.26 [ForestWetRich,158] 0.31 [ForestWetRich,159] 0.22 [ForestWetRich,160] 0.18 [ForestWetRich,161] 0.1 [ForestWetRich,162] 0.44 [ForestWetRich,163] 0.99 [ForestWetRich,175] 0.08 [ForestWetRich,176] 0.11 [ForestWetRich,177] 0.68 [ForestWetRich,178] 0.73 [ForestWetRich,179] 0.68 [ForestWetRich,180] 0.38 [ForestWetRich,181] 0.29 [ForestWetRich,182] 0.23 [ForestWetRich,197] 0.6 [ForestWetRich,198] 0.69 [ForestWetRich,199] 0.75 [ForestWetRich,217] 0.55 [ForestWetRich,218] 0.62 [ForestWetRich,219] 0.65 [ForestWetRich,239] 0.65 [ForestWetRich,260] 0.44 [ForestWetRich,261] 0.35 [ForestWetRich,262] 0.6 [ForestWetRich,281] 0.29 [ForestWetRich,282] 0.07 [ForestWetRich,283] 0.46 [ForestWetRich,284] 0.46 [ForestWetRich,285] 0.52 [ForestWetRich,286] 0.57 [ForestWetRich,303] 0.16 [ForestWetRich,304] 0.55 [ForestWetRich,305] 0.46 [ForestWetRich,307] 0.51 [ForestWetRich,326] 0.55 [ForestWetRich,327] 0.53 [ForestWetRich,328] 0.49 [ForestWetRich,345] 0.37 [ForestWetRich,346] 0.43 [ForestWetRich,347] 0.55 [ForestWetRich,348] 0.54 [ForestWetRich,349] 0.43 [ForestWetRich,367] 0.37 [ForestWetRich,368] 0.37 [ForestWetRich,391] 0.01 [OpenDryPoor,163] 0.98 [OpenDryRich,119] 0.87 [OpenDryRich,136] 0.24 [OpenDryRich,137] 0.26 [OpenDryRich,138] 0.05 [OpenDryRich,139] 0.0296465838421136 [OpenDryRich,140] 0.397518001869321 [OpenDryRich,154] 0.08 [OpenDryRich,156] 0.0399531358573586 [OpenDryRich,157] 0.259839553459315 [OpenDryRich,158] 0.31 [OpenDryRich,159] 0.22 [OpenDryRich,160] 0.18 [OpenDryRich,161] 0.1 [OpenDryRich,162] 0.43 [OpenDryRich,163] 0.99 [OpenDryRich,175] 0.0783993436396122 [OpenDryRich,176] 0.109240690367296 [OpenDryRich,177] 0.677173187602311 [OpenDryRich,178] 0.728302638665773 [OpenDryRich,179] 0.671091958135366 [OpenDryRich,180] 0.374864228423685 [OpenDryRich,181] 0.288983803093433 [OpenDryRich,182] 0.23 [OpenDryRich,183] 0.52 [OpenDryRich,197] 0.586991119757295 [OpenDryRich,198] 0.685587778030895 [OpenDryRich,199] 0.73701570276171 [OpenDryRich,217] 0.542780951084569 [OpenDryRich,218] 0.613710228651762 [OpenDryRich,219] 0.635396655555814 [OpenDryRich,239] 0.637898890394717 [OpenDryRich,260] 0.44 [OpenDryRich,261] 0.35 [OpenDryRich,262] 0.6 [OpenDryRich,281] 0.29 [OpenDryRich,282] 0.07 [OpenDryRich,285] 0.513664089664817 [OpenDryRich,286] 0.56741800907068 [OpenDryRich,303] 0.159762484300882 [OpenDryRich,304] 0.534543698877096 [OpenDryRich,305] 0.445266703218222 [OpenDryRich,307] 0.500768050532788 [OpenDryRich,322] 0.01 [OpenDryRich,323] 0.15 [OpenDryRich,324] 0.397546943835914 [OpenDryRich,325] 0.538255714424886 [OpenDryRich,326] 0.528140118643642 [OpenDryRich,327] 0.499735336005688 [OpenDryRich,328] 0.482927698912099 [OpenDryRich,343] 0.13 [OpenDryRich,344] 0.37 [OpenDryRich,345] 0.368052754858509 [OpenDryRich,346] 0.417644059779122 [OpenDryRich,347] 0.537251793723553 [OpenDryRich,348] 0.537537579489872 [OpenDryRich,349] 0.429396045784233 [OpenDryRich,367] 0.365775803178549 [OpenDryRich,368] 0.367814381555654 [OpenDryRich,391] 0.01 [OpenWetRich,119] 0.87 [OpenWetRich,136] 0.24 [OpenWetRich,137] 0.26 [OpenWetRich,138] 0.05 [OpenWetRich,139] 0.03 [OpenWetRich,140] 0.4 [OpenWetRich,154] 0.08 [OpenWetRich,156] 0.04 [OpenWetRich,157] 0.26 [OpenWetRich,158] 0.31 [OpenWetRich,159] 0.22 [OpenWetRich,160] 0.18 [OpenWetRich,161] 0.1 [OpenWetRich,162] 0.44 [OpenWetRich,163] 1 [OpenWetRich,175] 0.08 [OpenWetRich,176] 0.11 [OpenWetRich,177] 0.68 [OpenWetRich,178] 0.73 [OpenWetRich,179] 0.68 [OpenWetRich,180] 0.38 [OpenWetRich,181] 0.29 [OpenWetRich,182] 0.23 [OpenWetRich,197] 0.6 [OpenWetRich,198] 0.69 [OpenWetRich,199] 0.75 [OpenWetRich,217] 0.55 [OpenWetRich,218] 0.62 [OpenWetRich,219] 0.65 [OpenWetRich,239] 0.65 [OpenWetRich,260] 0.44 [OpenWetRich,261] 0.35 [OpenWetRich,262] 0.6 [OpenWetRich,281] 0.29 [OpenWetRich,282] 0.07 [OpenWetRich,283] 0.46 [OpenWetRich,284] 0.46 [OpenWetRich,285] 0.52 [OpenWetRich,286] 0.57 [OpenWetRich,303] 0.16 [OpenWetRich,304] 0.55 [OpenWetRich,305] 0.46 [OpenWetRich,307] 0.52 [OpenWetRich,326] 0.55 [OpenWetRich,327] 0.54 [OpenWetRich,328] 0.49 [OpenWetRich,345] 0.37 [OpenWetRich,346] 0.43 [OpenWetRich,347] 0.55 [OpenWetRich,348] 0.55 [OpenWetRich,349] 0.44 [OpenWetRich,367] 0.37 [OpenWetRich,368] 0.37 [OpenWetRich,370] 0.01 [OpenWetRich,391] 0.01 ;
param Rarity default 0 := [ForestDryPoor,163] 0.01 [ForestDryRich,119] 0.01 [ForestDryRich,137] 0.01 [ForestDryRich,138] 0.01 [ForestDryRich,139] 0.00988219461403787 [ForestDryRich,140] 0.019875900093466 [ForestDryRich,156] 0.0299648518930189 [ForestDryRich,157] 0.0399753159168176 [ForestDryRich,158] 0.03 [ForestDryRich,159] 0.02 [ForestDryRich,160] 0.02 [ForestDryRich,161] 0.01 [ForestDryRich,163] 0.01 [ForestDryRich,177] 0.0298752876883373 [ForestDryRich,178] 0.0299302454246208 [ForestDryRich,179] 0.0296069981530309 [ForestDryRich,180] 0.039459392465651 [ForestDryRich,181] 0.0199299174547195 [ForestDryRich,182] 0.03 [ForestDryRich,183] 0.01 [ForestDryRich,197] 0.0195663706585765 [ForestDryRich,198] 0.0298081642622128 [ForestDryRich,199] 0.0294806281104684 [ForestDryRich,218] 0.0197971041500568 [ForestDryRich,219] 0.0293259994871914 [ForestDryRich,239] 0.00981382908299565 [ForestDryRich,261] 0.01 [ForestDryRich,262] 0.02 [ForestDryRich,391] 0.02 [ForestWetRich,119] 0.02 [ForestWetRich,137] 0.01 [ForestWetRich,138] 0.01 [ForestWetRich,139] 0.01 [ForestWetRich,140] 0.02 [ForestWetRich,156] 0.03 [ForestWetRich,157] 0.04 [ForestWetRich,158] 0.03 [ForestWetRich,159] 0.02 [ForestWetRich,160] 0.02 [ForestWetRich,161] 0.01 [ForestWetRich,162] 0.01 [ForestWetRich,163] 0.01 [ForestWetRich,177] 0.03 [ForestWetRich,178] 0.03 [ForestWetRich,179] 0.03 [ForestWetRich,180] 0.04 [ForestWetRich,181] 0.02 [ForestWetRich,182] 0.03 [ForestWetRich,197] 0.02 [ForestWetRich,198] 0.03 [ForestWetRich,199] 0.03 [ForestWetRich,218] 0.02 [ForestWetRich,219] 0.03 [ForestWetRich,239] 0.01 [ForestWetRich,261] 0.01 [ForestWetRich,262] 0.02 [ForestWetRich,391] 0.02 [OpenDryPoor,163] 0.01 [OpenDryRich,119] 0.02 [OpenDryRich,137] 0.01 [OpenDryRich,138] 0.01 [OpenDryRich,139] 0.00988219461403787 [OpenDryRich,140] 0.019875900093466 [OpenDryRich,156] 0.0299648518930189 [OpenDryRich,157] 0.0399753159168176 [OpenDryRich,158] 0.03 [OpenDryRich,159] 0.02 [OpenDryRich,160] 0.02 [OpenDryRich,161] 0.01 [OpenDryRich,163] 0.01 [OpenDryRich,177] 0.0298752876883373 [OpenDryRich,178] 0.0299302454246208 [OpenDryRich,179] 0.0296069981530309 [OpenDryRich,180] 0.039459392465651 [OpenDryRich,181] 0.0199299174547195 [OpenDryRich,182] 0.03 [OpenDryRich,183] 0.01 [OpenDryRich,197] 0.0195663706585765 [OpenDryRich,198] 0.0298081642622128 [OpenDryRich,199] 0.0294806281104684 [OpenDryRich,218] 0.0197971041500568 [OpenDryRich,219] 0.0293259994871914 [OpenDryRich,239] 0.00981382908299565 [OpenDryRich,261] 0.01 [OpenDryRich,262] 0.02 [OpenDryRich,391] 0.02 [OpenWetRich,119] 0.02 [OpenWetRich,137] 0.01 [OpenWetRich,138] 0.01 [OpenWetRich,139] 0.01 [OpenWetRich,140] 0.02 [OpenWetRich,156] 0.03 [OpenWetRich,157] 0.04 [OpenWetRich,158] 0.03 [OpenWetRich,159] 0.02 [OpenWetRich,160] 0.02 [OpenWetRich,161] 0.01 [OpenWetRich,162] 0.01 [OpenWetRich,163] 0.01 [OpenWetRich,177] 0.03 [OpenWetRich,178] 0.03 [OpenWetRich,179] 0.03 [OpenWetRich,180] 0.04 [OpenWetRich,181] 0.02 [OpenWetRich,182] 0.03 [OpenWetRich,197] 0.02 [OpenWetRich,198] 0.03 [OpenWetRich,199] 0.03 [OpenWetRich,218] 0.02 [OpenWetRich,219] 0.03 [OpenWetRich,239] 0.01 [OpenWetRich,261] 0.01 [OpenWetRich,262] 0.02 [OpenWetRich,307] 0.01 [OpenWetRich,327] 0.01 [OpenWetRich,328] 0.01 [OpenWetRich,348] 0.01 [OpenWetRich,349] 0.01 [OpenWetRich,370] 1 [OpenWetRich,391] 0.51 ;
param TransitionCost default 1 ; 
param b := 87 ; 
